Generated by VASPKIT based on Hinuma et al.'s Paper, Comp. Mat. Sci. 128, 140 (2017), DOI: 10.1016/j.commatsci.2016.10.015.
   50
Line-Mode
Reciprocal
   0.0000000000   0.0000000000   0.0000000000     Γ          
   0.5000000000   0.0000000000   0.0000000000     M              
 
   0.5000000000   0.0000000000   0.0000000000     M              
   0.3333333333   0.3333333333   0.0000000000     K              
 
   0.3333333333   0.3333333333   0.0000000000     K              
   0.0000000000   0.0000000000   0.0000000000     Γ          
 
