 POSCAR with strain of 0.000            
  0.800460000000000     
     3.9974000453999996    0.0000000000000000    0.0000000000000000
    -1.9987000226999998    3.4618499884000000    0.0000000000000000
     0.0000000000000000    0.0000000000000000   15.8159999847000012
   P    B 
     1     1
Direct
  0.0000000000000000  0.0000000000000000  0.9622671446308573
  0.3333333280000019  0.6666666550000002  0.9626728503691453
 
  0.00000000E+00  0.00000000E+00  0.00000000E+00
  0.00000000E+00  0.00000000E+00  0.00000000E+00
